c Reduced graph for david generated by Cyril Grelier
p edge 87 406
e 1 2
e 1 3
e 1 4
e 1 5
e 1 6
e 1 7
e 1 8
e 1 9
e 1 10
e 1 11
e 1 12
e 1 13
e 1 14
e 1 15
e 1 16
e 1 17
e 1 18
e 1 19
e 1 20
e 1 21
e 1 22
e 1 23
e 1 24
e 1 25
e 1 26
e 1 27
e 1 28
e 1 29
e 1 30
e 1 31
e 1 32
e 1 33
e 1 34
e 1 35
e 1 36
e 1 37
e 1 38
e 1 39
e 1 40
e 1 41
e 1 42
e 1 43
e 1 44
e 1 45
e 1 46
e 1 47
e 1 48
e 1 49
e 1 50
e 1 52
e 1 53
e 1 56
e 1 58
e 1 59
e 1 60
e 1 61
e 1 62
e 1 63
e 1 64
e 1 65
e 1 66
e 1 67
e 1 68
e 1 69
e 1 70
e 1 71
e 1 72
e 1 73
e 1 74
e 1 75
e 1 76
e 1 77
e 1 78
e 1 79
e 1 80
e 1 81
e 1 82
e 1 83
e 1 84
e 1 85
e 1 86
e 1 87
e 2 3
e 2 4
e 2 5
e 2 6
e 2 7
e 2 8
e 2 12
e 2 13
e 2 14
e 2 15
e 2 16
e 2 17
e 2 18
e 2 21
e 2 23
e 2 24
e 2 25
e 2 28
e 2 29
e 2 30
e 2 31
e 2 32
e 2 33
e 2 35
e 2 36
e 2 38
e 2 39
e 2 40
e 2 43
e 2 44
e 2 51
e 2 54
e 2 55
e 2 57
e 3 4
e 3 5
e 3 6
e 3 7
e 3 8
e 3 10
e 3 12
e 3 13
e 3 15
e 3 16
e 3 17
e 3 18
e 3 19
e 3 21
e 3 23
e 3 24
e 3 26
e 3 27
e 3 34
e 3 36
e 3 37
e 3 38
e 3 40
e 3 42
e 3 53
e 3 58
e 3 64
e 3 65
e 3 70
e 4 5
e 4 6
e 4 7
e 4 8
e 4 10
e 4 11
e 4 12
e 4 13
e 4 15
e 4 16
e 4 17
e 4 18
e 4 21
e 4 23
e 4 24
e 4 26
e 4 28
e 4 29
e 4 30
e 4 31
e 4 33
e 4 35
e 4 36
e 4 37
e 4 38
e 4 40
e 4 41
e 5 6
e 5 7
e 5 9
e 5 10
e 5 11
e 5 12
e 5 13
e 5 14
e 5 15
e 5 16
e 5 17
e 5 18
e 5 19
e 5 22
e 5 24
e 5 27
e 5 34
e 5 38
e 5 40
e 5 45
e 5 53
e 5 62
e 5 64
e 5 65
e 6 7
e 6 8
e 6 9
e 6 11
e 6 12
e 6 13
e 6 15
e 6 16
e 6 20
e 6 22
e 6 24
e 6 25
e 6 36
e 6 48
e 6 52
e 6 61
e 7 9
e 7 11
e 7 13
e 7 14
e 7 15
e 7 16
e 7 20
e 7 22
e 7 24
e 7 34
e 7 45
e 7 50
e 7 56
e 8 12
e 8 21
e 8 25
e 8 26
e 8 28
e 8 29
e 8 30
e 8 31
e 8 32
e 8 33
e 8 35
e 8 36
e 8 41
e 9 11
e 9 13
e 9 14
e 9 15
e 9 16
e 9 19
e 9 20
e 9 22
e 9 34
e 9 42
e 9 45
e 9 46
e 9 49
e 10 12
e 10 17
e 10 19
e 10 21
e 10 23
e 10 26
e 10 27
e 10 37
e 10 42
e 10 48
e 10 53
e 10 58
e 10 62
e 11 13
e 11 14
e 11 15
e 11 16
e 11 20
e 11 22
e 11 25
e 11 34
e 11 45
e 11 50
e 12 19
e 12 21
e 12 23
e 12 36
e 12 37
e 12 58
e 12 65
e 12 70
e 13 15
e 13 16
e 13 20
e 13 22
e 13 24
e 13 25
e 13 52
e 14 25
e 14 32
e 14 34
e 14 39
e 14 44
e 14 50
e 14 56
e 14 66
e 14 67
e 14 72
e 15 16
e 15 20
e 15 22
e 15 24
e 15 52
e 16 20
e 16 22
e 16 24
e 16 52
e 17 18
e 17 27
e 17 38
e 17 40
e 17 47
e 17 59
e 17 60
e 17 74
e 18 21
e 18 23
e 18 38
e 18 40
e 18 51
e 18 54
e 18 55
e 18 57
e 19 27
e 19 42
e 19 46
e 19 48
e 19 49
e 19 53
e 19 58
e 19 69
e 20 22
e 20 39
e 20 44
e 20 68
e 21 23
e 21 26
e 21 37
e 21 41
e 22 34
e 23 26
e 23 37
e 23 41
e 24 52
e 25 32
e 25 50
e 25 56
e 25 66
e 26 36
e 26 37
e 26 41
e 27 47
e 27 59
e 27 60
e 28 29
e 28 30
e 28 31
e 28 33
e 28 35
e 29 30
e 29 31
e 29 33
e 29 35
e 30 31
e 30 33
e 30 35
e 31 33
e 31 35
e 32 39
e 32 43
e 32 44
e 32 63
e 33 35
e 34 45
e 38 40
e 39 43
e 39 44
e 39 63
e 41 47
e 42 46
e 42 49
e 43 51
e 43 54
e 43 63
e 44 68
e 46 49
e 46 71
e 47 59
e 47 60
e 48 61
e 48 69
e 49 71
e 50 56
e 51 54
e 51 55
e 51 57
e 53 62
e 54 55
e 54 57
e 55 57
e 59 60
e 61 77
e 64 75
e 67 72
e 73 76
